# Objective value = 23
WA1n 0
WA1p 0
WA2n 1
WA2p 0
WB1n 0
WB1p 0
WB2n 0
WB2p 1
WC1n 1
WC1p 0
WD1n 1
WD1p 0
WE1n 0
WE1p 1
WF1n 0
WF1p 1
WG1n 4
WG1p 0
WG2n 1
WG2p 0
WH1n 0
WH1p 4
WH2n 0
WH2p 1
WT1n 0
WT1p 3
5 7
a 0
b 0
c 0
d 1
e 0
f 0
g 1
h 1
i 0
j 0
k 1
l 1
m 1
